50 50
   1   45   -1   -1    5    3   -1   -1   -1   48   21   -1    8   43   46   28   -1   33   -1   -1   -1   17   31   32   -1   10   -1    0   -1   -1   15    7    8   -1   -1   -1   13   -1   -1   27   21   -1   -1   -1   -1   43   45    4   41   48 
   0    1    3   -1   25   42   -1   19   -1   32   22   20   -1   40   40    8   -1   18    8   -1   -1    2   -1    8   -1   -1   25   41   -1   -1   -1   14   -1   -1   -1   46    8   23   30   24   -1   38   46   28   -1   26    5    2   41   -1 
   0    0    1   -1   16   -1   -1   34   46   -1   -1    3   -1   10   -1   40   27   -1   -1   41   36   14   -1   42   27   -1   46   -1   16   -1   -1   29   -1   -1   -1   -1   -1   -1   44   -1   -1   26   -1   35   23   -1   -1    9   43   47 
   0    0    0    1   35   -1   42   -1   -1   27    0   29   17   -1    1   -1   -1   -1   -1   19   13   -1    3   48   -1   31   -1   -1   -1   -1   24   -1   -1   42   -1   -1   31   44   -1   33   -1   38   20    7   -1    7   34   43    3   48 
   0    0    0    0    1   21   48   -1   19   -1   -1    7   46   -1   13   45   20   -1   -1   -1   -1   44   23   38   42   -1   40   47   -1   -1   24   20   -1   -1   -1   -1   -1   -1   -1   49    9   12   -1    6   -1   -1   38   -1    8   27 
   0    0    0    0    0    1    6   27    2   26    9    8   -1   -1   -1   -1   -1   -1   20   -1    1   -1   -1   -1   31   -1   10   -1   -1    6   -1   -1   -1   -1   49   -1   44   -1   -1   -1   24   -1   34   -1   -1    1   25   45   25   -1 
   0    0    0    0    0    0    1   -1   18   45   -1    0   46   -1   27   42   38   34   -1   -1   32   15    4   47   -1   -1   -1   30   39   42   -1   -1   -1   28   33   -1   -1   -1   47   33   15   43   47   -1   -1   -1   -1   14   -1   15 
   0    0    0    0    0    0    0    1   -1   33   16   -1   48    9   11   15   -1   21   27   -1   -1   36   -1   -1   31   47   -1   -1   42    1   -1   -1   46   -1   -1   -1   36   -1   -1    2   21   25   -1   48   -1   -1   42   -1   -1   -1 
   0    0    0    0    0    0    0    0    1   20   -1   -1   -1   -1   -1   34   -1    2   -1    8   32   38   23   -1   42   43   -1   -1   30   -1   19   29   -1   -1   -1   17   49   -1   -1   -1   -1   -1   -1   39   -1   -1   32    5   -1   -1 
   0    0    0    0    0    0    0    0    0    1   -1   -1   -1   -1   -1   11    0    7   45   -1   39    1   -1    0   -1   -1   36   -1   -1   -1   -1   -1   26   39   37   -1    0   -1   47    7   13   -1   21   -1   48   -1   12   -1   -1   -1 
   0    0    0    0    0    0    0    0    0    0    0   34   48   -1   -1   39    9   -1   -1   -1   -1   21   -1   -1   -1   26   -1   -1   -1   -1   24   10    1    4   -1   -1    3   -1   16   49   32   -1   31   -1   20    0   -1   -1   -1   36 
   0    0    0    0    0    0    0    0    0    0    0    0   27   -1    3   32   -1   11   11   25   -1   -1   47   -1   15   -1   -1   48   -1   -1   -1   -1   43   -1   -1   -1   28    6   -1   23   19   45   -1   19   -1   -1   -1   16   23   12 
   0    0    0    0    0    0    0    0    0    0    0    0    0   26   34   22   25   17   -1   22   -1   -1   43   12   -1   13   -1   -1   -1   -1   47   15   -1   49   32   38   -1   42   -1   -1   26   -1   13   -1   -1   -1   -1   -1   -1   -1 
   0    0    0    0    0    0    0    0    0    0    0    0    0    0   -1   -1   -1   27   14   -1    0   14   -1   -1   24   -1   42   -1   20   -1   -1   -1   -1   14   -1   -1   -1   -1   -1   -1   -1   -1    6   -1   41   38   -1   -1   -1   -1 
   0    0    0    0    0    0    0    0    0    0    0    0    0    0    0   -1   17   43   18   -1   34   46   33   22   36   17   45   -1   -1    6   -1   33   14   45   -1   -1   36   13   28   37   -1   33   -1   24   -1   16   -1   35    5    1 
   0    0    0    0    0    0    0    0    0    0    0    0    0    0    0    0   45   33    7   41   -1   -1   -1   27   -1   -1   -1   -1   26   -1   -1   43   -1   -1   -1   20   -1    1   -1    2   -1   -1   28   -1   34   -1   -1   30   16   -1 
   0    0    0    0    0    0    0    0    0    0    0    0    0    0    0    0    0   13   -1   -1   16   34   -1    4   40   28   -1   36   -1   -1   20   22   -1   -1   48   29   -1   -1   -1   -1   17   23   -1   -1   44   22   -1    4   -1   -1 
   0    0    0    0    0    0    0    0    0    0    0    0    0    0    0    0    0    0   38   45   -1   37   -1   39   48   -1   35   -1   18   -1   -1   -1    8   -1    7   -1   12   37   -1   -1   -1   -1   24   23   42   44   40   -1   42   -1 
   0    0    0    0    0    0    0    0    0    0    0    0    0    0    0    0    0    0    0   -1   -1   -1    6   32   -1   24   49    9   31   37   -1   -1   21   36   32   37   -1   -1   46   -1   -1   45   41   27   -1   -1   -1   -1   28   -1 
   0    0    0    0    0    0    0    0    0    0    0    0    0    0    0    0    0    0    0    0   49   -1   -1   12   -1    6    5   44   27   39   29   -1   -1   13   -1   -1   31   17   -1   -1   18   13   -1   -1   -1   10   45   -1   -1   -1 
   0    0    0    0    0    0    0    0    0    0    0    0    0    0    0    0    0    0    0    0    0   29   -1    5    5   20   -1   36   -1   -1   13   -1   -1   -1   18   -1   14   -1   -1   -1    9   43   10   20    2   19   -1   -1   19   -1 
   0    0    0    0    0    0    0    0    0    0    0    0    0    0    0    0    0    0    0    0    0    0   -1   -1   -1   -1   27   -1   -1   39    7   34   -1    6   -1   -1   -1   -1   -1   -1   40   21    9   -1   -1   -1   -1   -1   17   -1 
   0    0    0    0    0    0    0    0    0    0    0    0    0    0    0    0    0    0    0    0    0    0    0    3   -1   11   37    5    5    5   -1    2    8   47   31    5   -1   -1   15   -1   -1   -1   -1   -1   12   -1   -1   -1   30   12 
   0    0    0    0    0    0    0    0    0    0    0    0    0    0    0    0    0    0    0    0    0    0    0    0   -1   -1   31   23   48   41   10   -1   -1   -1    3   20   -1   12   -1   -1   -1   15   35   39   -1   14   48   -1   -1    5 
   0    0    0    0    0    0    0    0    0    0    0    0    0    0    0    0    0    0    0    0    0    0    0    0    0   -1   -1    3   16   -1    0   -1   -1   -1    3   -1   44   23   21   11   -1   -1   -1   32   -1   -1   -1   -1   14   -1 
   0    0    0    0    0    0    0    0    0    0    0    0    0    0    0    0    0    0    0    0    0    0    0    0    0    0   -1   22   -1   -1   30   -1   -1   -1   -1   -1   39   -1   -1   15   -1   -1   47   -1   -1   11   -1   -1   -1   39 
   0    0    0    0    0    0    0    0    0    0    0    0    0    0    0    0    0    0    0    0    0    0    0    0    0    0    0   -1   45   -1   -1    4    9   -1   -1   -1   28   -1    5   33   25   -1   -1   24    6   -1   -1   -1   11   40 
   0    0    0    0    0    0    0    0    0    0    0    0    0    0    0    0    0    0    0    0    0    0    0    0    0    0    0    0   -1   -1   28   44   11   -1   -1   -1   -1   -1   -1   12   -1   -1   -1   -1   -1   -1   -1   -1   -1   34 
   0    0    0    0    0    0    0    0    0    0    0    0    0    0    0    0    0    0    0    0    0    0    0    0    0    0    0    0    0   -1   46   24   27   25   -1   -1   43   31   39   27   17   46   -1   -1   -1   12   30   31   30   -1 
   0    0    0    0    0    0    0    0    0    0    0    0    0    0    0    0    0    0    0    0    0    0    0    0    0    0    0    0    0    0   -1   -1   19   -1   -1   25   34   -1   13   21   30   47    0   42   -1   -1   -1   -1   -1   -1 
   0    0    0    0    0    0    0    0    0    0    0    0    0    0    0    0    0    0    0    0    0    0    0    0    0    0    0    0    0    0    0    6   16   -1   37   -1   36   -1   -1   -1   -1   -1    7   16   -1   -1   -1   16   -1   -1 
   0    0    0    0    0    0    0    0    0    0    0    0    0    0    0    0    0    0    0    0    0    0    0    0    0    0    0    0    0    0    0    0   11    5   34   -1    5   -1   32   21   16   -1   43    5    6   24   20   -1   36   14 
   0    0    0    0    0    0    0    0    0    0    0    0    0    0    0    0    0    0    0    0    0    0    0    0    0    0    0    0    0    0    0    0    0   -1   36   31   -1   18   -1   -1    5   49   14   -1   30    6   -1   -1   -1   -1 
   0    0    0    0    0    0    0    0    0    0    0    0    0    0    0    0    0    0    0    0    0    0    0    0    0    0    0    0    0    0    0    0    0    0   19    3   10   -1   -1   12   45   -1   -1    1   -1   -1   -1   26   -1   -1 
   0    0    0    0    0    0    0    0    0    0    0    0    0    0    0    0    0    0    0    0    0    0    0    0    0    0    0    0    0    0    0    0    0    0    0   39   -1   -1   -1   -1   -1   41   33   -1   -1   -1   -1   34   -1   -1 
   0    0    0    0    0    0    0    0    0    0    0    0    0    0    0    0    0    0    0    0    0    0    0    0    0    0    0    0    0    0    0    0    0    0    0    0   -1   29   -1   -1   22   18   14   20    1   14    9   -1   -1   -1 
   0    0    0    0    0    0    0    0    0    0    0    0    0    0    0    0    0    0    0    0    0    0    0    0    0    0    0    0    0    0    0    0    0    0    0    0    0   -1   26   42   26   -1    9   -1   -1   -1   42   -1   -1   -1 
   0    0    0    0    0    0    0    0    0    0    0    0    0    0    0    0    0    0    0    0    0    0    0    0    0    0    0    0    0    0    0    0    0    0    0    0    0    0   -1   18   -1   41    2   -1   -1   25   43   21   -1   -1 
   0    0    0    0    0    0    0    0    0    0    0    0    0    0    0    0    0    0    0    0    0    0    0    0    0    0    0    0    0    0    0    0    0    0    0    0    0    0    0   40   27   -1   -1   12   24   29   -1   27   35    1 
   0    0    0    0    0    0    0    0    0    0    0    0    0    0    0    0    0    0    0    0    0    0    0    0    0    0    0    0    0    0    0    0    0    0    0    0    0    0    0    0   23   -1    8   21   -1   -1   -1   -1    1   -1 
   0    0    0    0    0    0    0    0    0    0    0    0    0    0    0    0    0    0    0    0    0    0    0    0    0    0    0    0    0    0    0    0    0    0    0    0    0    0    0    0    0   49   -1   44   -1   -1   -1   34   47   47 
   0    0    0    0    0    0    0    0    0    0    0    0    0    0    0    0    0    0    0    0    0    0    0    0    0    0    0    0    0    0    0    0    0    0    0    0    0    0    0    0    0    0    7   42   35   -1   -1   -1   43   24 
   0    0    0    0    0    0    0    0    0    0    0    0    0    0    0    0    0    0    0    0    0    0    0    0    0    0    0    0    0    0    0    0    0    0    0    0    0    0    0    0    0    0    0   42   26   -1    2   -1   -1   25 
   0    0    0    0    0    0    0    0    0    0    0    0    0    0    0    0    0    0    0    0    0    0    0    0    0    0    0    0    0    0    0    0    0    0    0    0    0    0    0    0    0    0    0    0   16   48   17   -1    8   -1 
   0    0    0    0    0    0    0    0    0    0    0    0    0    0    0    0    0    0    0    0    0    0    0    0    0    0    0    0    0    0    0    0    0    0    0    0    0    0    0    0    0    0    0    0    0   39   -1    8   -1   -1 
   0    0    0    0    0    0    0    0    0    0    0    0    0    0    0    0    0    0    0    0    0    0    0    0    0    0    0    0    0    0    0    0    0    0    0    0    0    0    0    0    0    0    0    0    0    0   46    3    8   39 
   0    0    0    0    0    0    0    0    0    0    0    0    0    0    0    0    0    0    0    0    0    0    0    0    0    0    0    0    0    0    0    0    0    0    0    0    0    0    0    0    0    0    0    0    0    0    0   -1   -1   -1 
   0    0    0    0    0    0    0    0    0    0    0    0    0    0    0    0    0    0    0    0    0    0    0    0    0    0    0    0    0    0    0    0    0    0    0    0    0    0    0    0    0    0    0    0    0    0    0    0   37   36 
   0    0    0    0    0    0    0    0    0    0    0    0    0    0    0    0    0    0    0    0    0    0    0    0    0    0    0    0    0    0    0    0    0    0    0    0    0    0    0    0    0    0    0    0    0    0    0    0    0   -1 
   0    0    0    0    0    0    0    0    0    0    0    0    0    0    0    0    0    0    0    0    0    0    0    0    0    0    0    0    0    0    0    0    0    0    0    0    0    0    0    0    0    0    0    0    0    0    0    0    0    0 
